32      4       
18      17      19      12      
0       0       0       0       0       11      2       3       4       5       7       8       9       12      13      14      17      
8       1       2       1       1       5       31      26      19      15      6       
7       7       4       1       1       5       25      18      16      15      11      
1       1       2       1       5       3       18      15      10      
8       7       1       4       6       3       23      16      15      
6       1       3       1       1       3       25      22      21      
1       1       1       1       1       2       23      15      
1       3       3       5       1       2       23      15      
6       1       1       2       1       2       24      15      
1       4       5       4       1       4       30      28      25      24      
3       1       1       10      1       3       30      24      20      
5       1       13      7       1       3       30      24      20      
2       1       1       1       1       4       30      29      27      26      
3       6       8       1       3       3       30      28      23      
10      10      11      3       6       2       30      20      
7       1       1       2       5       3       29      27      26      
1       1       1       1       1       3       30      28      25      
10      16      1       11      2       2       28      23      
3       1       1       1       1       1       20      
3       1       3       4       1       3       29      28      27      
1       1       3       1       5       3       30      28      27      
8       1       1       8       1       1       23      
1       7       5       1       2       1       24      
1       8       7       2       6       1       27      
1       1       4       1       1       1       29      
5       6       1       9       6       1       28      
1       1       1       1       3       1       32      
7       8       8       1       1       1       32      
3       3       5       8       1       1       32      
6       6       1       19      5       1       32      
10      1       3       2       1       1       32      
0       0       0       0       0       0       
